(declare-const X String)
; weatherSubject\x3aX-Mailer\x3aTOOLBAR\x2Fnewsurfer4\x2F
(assert (str.in_re X (str.to_re "weatherSubject:X-Mailer:\u{13}TOOLBAR/newsurfer4/\u{a}")))
; wowokay\d+FTP\s+Host\x3AFiltered\x22reaction\x2Etxt\x22
(assert (not (str.in_re X (re.++ (str.to_re "wowokay") (re.+ (re.range "0" "9")) (str.to_re "FTP") (re.+ (re.union (str.to_re " ") (str.to_re "\u{9}") (str.to_re "\u{a}") (str.to_re "\u{c}") (str.to_re "\u{d}"))) (str.to_re "Host:Filtered\u{22}reaction.txt\u{22}\u{a}")))))
(check-sat)

(exit)
